; DUP3 MLOAD DUP4 SWAP1 => DUP3 DUP4 MLOAD
(set-option :produce-proofs true)
; 
(set-info :status unknown)
(declare-fun storage_t ((_ BitVec 256) (_ BitVec 256) (_ BitVec 256) (_ BitVec 256) Int (_ BitVec 256)) (_ BitVec 256))
(declare-fun storage_s ((_ BitVec 256) (_ BitVec 256) (_ BitVec 256) (_ BitVec 256) Int (_ BitVec 256)) (_ BitVec 256))
(declare-fun exc_halt_t (Int) Bool)
(declare-fun exc_halt_s (Int) Bool)
(declare-fun stack_t ((_ BitVec 256) (_ BitVec 256) (_ BitVec 256) (_ BitVec 256) Int (_ BitVec 6)) (_ BitVec 256))
(declare-fun stack_s ((_ BitVec 256) (_ BitVec 256) (_ BitVec 256) (_ BitVec 256) Int (_ BitVec 6)) (_ BitVec 256))
(declare-fun sc_t (Int) (_ BitVec 6))
(declare-fun sc_s (Int) (_ BitVec 6))
(declare-fun used_gas_t ((_ BitVec 256) (_ BitVec 256) (_ BitVec 256) (_ BitVec 256) Int) Int)
(declare-fun used_gas_s ((_ BitVec 256) (_ BitVec 256) (_ BitVec 256) (_ BitVec 256) Int) Int)
(declare-fun f_MLOAD ((_ BitVec 256) (_ BitVec 256) (_ BitVec 256) (_ BitVec 256) (_ BitVec 256)) (_ BitVec 256))
(assert
 (exists ((x_0 (_ BitVec 256)) (x_1 (_ BitVec 256)) (x_2 (_ BitVec 256)) (x_MLOAD_0 (_ BitVec 256)) )(let (($x2472 (forall ((w (_ BitVec 256)) )(let ((?x2469 (storage_t x_0 x_1 x_2 x_MLOAD_0 3 w)))
 (let ((?x2470 (storage_s x_0 x_1 x_2 x_MLOAD_0 4 w)))
 (= ?x2470 ?x2469))))
 ))
 (let (($x22 (exc_halt_t 3)))
 (let (($x337 (exc_halt_s 4)))
 (let (($x1847 (= $x337 $x22)))
 (let (($x2915 (forall ((n (_ BitVec 6)) )(let ((?x2474 (stack_t x_0 x_1 x_2 x_MLOAD_0 3 n)))
 (let ((?x2475 (stack_s x_0 x_1 x_2 x_MLOAD_0 4 n)))
 (let (($x2476 (= ?x2475 ?x2474)))
 (let ((?x30 (sc_t 3)))
 (let (($x948 (bvsle ?x30 n)))
 (or $x948 $x2476)))))))
 ))
 (let ((?x30 (sc_t 3)))
 (let ((?x321 (sc_s 4)))
 (let (($x1853 (= ?x321 ?x30)))
 (let ((?x2482 (used_gas_t x_0 x_1 x_2 x_MLOAD_0 0)))
 (let ((?x2483 (used_gas_s x_0 x_1 x_2 x_MLOAD_0 0)))
 (let (($x2484 (= ?x2483 ?x2482)))
 (let (($x2489 (forall ((w (_ BitVec 256)) )(let ((?x2486 (storage_t x_0 x_1 x_2 x_MLOAD_0 0 w)))
 (let ((?x2487 (storage_s x_0 x_1 x_2 x_MLOAD_0 0 w)))
 (= ?x2487 ?x2486))))
 ))
 (let (($x56 (exc_halt_t 0)))
 (let (($x57 (exc_halt_s 0)))
 (let (($x58 (= $x57 $x56)))
 (let (($x2913 (forall ((n (_ BitVec 6)) )(let ((?x2491 (stack_t x_0 x_1 x_2 x_MLOAD_0 0 n)))
 (let ((?x2492 (stack_s x_0 x_1 x_2 x_MLOAD_0 0 n)))
 (let (($x2493 (= ?x2492 ?x2491)))
 (let ((?x63 (sc_t 0)))
 (let (($x947 (bvsle ?x63 n)))
 (or $x947 $x2493)))))))
 ))
 (let ((?x63 (sc_t 0)))
 (let ((?x72 (sc_s 0)))
 (let (($x73 (= ?x72 ?x63)))
 (let (($x2910 (= $x22 (or (exc_halt_t 2) (not (bvsle (_ bv0 6) (bvadd (_ bv63 6) (sc_t 2))))))))
 (let (($x2908 (forall ((w (_ BitVec 256)) )(let ((?x2499 (storage_t x_0 x_1 x_2 x_MLOAD_0 2 w)))
 (let ((?x2469 (storage_t x_0 x_1 x_2 x_MLOAD_0 3 w)))
 (= ?x2469 ?x2499))))
 ))
 (let (($x2907 (forall ((n (_ BitVec 6)) )(let ((?x2503 (stack_t x_0 x_1 x_2 x_MLOAD_0 2 n)))
 (let ((?x2474 (stack_t x_0 x_1 x_2 x_MLOAD_0 3 n)))
 (let ((?x452 (sc_t 2)))
 (let ((?x930 (bvadd (_ bv63 6) ?x452)))
 (let (($x2025 (bvsle ?x930 n)))
 (or $x2025 (= ?x2474 ?x2503))))))))
 ))
 (let ((?x452 (sc_t 2)))
 (let (($x936 (= ?x30 ?x452)))
 (let (($x2903 (= (used_gas_t x_0 x_1 x_2 x_MLOAD_0 3) (+ 3 (used_gas_t x_0 x_1 x_2 x_MLOAD_0 2)))))
 (let ((?x930 (bvadd (_ bv63 6) ?x452)))
 (let ((?x2866 (stack_t x_0 x_1 x_2 x_MLOAD_0 2 ?x930)))
 (let (($x2900 (= (stack_t x_0 x_1 x_2 x_MLOAD_0 3 (bvadd (_ bv63 6) ?x30)) (f_MLOAD x_0 x_1 x_2 x_MLOAD_0 ?x2866))))
 (let (($x2012 (not (= ((_ extract 6 6) (bvadd (_ bv1 7) (concat (_ bv0 1) (sc_t 1)))) (_ bv0 1)))))
 (let (($x424 (exc_halt_t 1)))
 (let (($x475 (exc_halt_t 2)))
 (let (($x2891 (forall ((w (_ BitVec 256)) )(let ((?x2521 (storage_t x_0 x_1 x_2 x_MLOAD_0 1 w)))
 (let ((?x2499 (storage_t x_0 x_1 x_2 x_MLOAD_0 2 w)))
 (= ?x2499 ?x2521))))
 ))
 (let (($x2890 (forall ((n (_ BitVec 6)) )(let ((?x2525 (stack_t x_0 x_1 x_2 x_MLOAD_0 1 n)))
 (let ((?x2503 (stack_t x_0 x_1 x_2 x_MLOAD_0 2 n)))
 (or (bvsle (bvadd (_ bv60 6) (sc_t 1)) n) (= ?x2503 ?x2525)))))
 ))
 (let (($x2002 (= ?x452 (bvadd (_ bv1 6) (sc_t 1)))))
 (let ((?x2511 (used_gas_t x_0 x_1 x_2 x_MLOAD_0 2)))
 (let ((?x409 (sc_t 1)))
 (let ((?x880 (bvadd (_ bv63 6) ?x409)))
 (let ((?x2837 (stack_t x_0 x_1 x_2 x_MLOAD_0 1 ?x880)))
 (let (($x2881 (= (stack_t x_0 x_1 x_2 x_MLOAD_0 2 (bvadd (_ bv62 6) ?x409)) (stack_t x_0 x_1 x_2 x_MLOAD_0 1 (bvadd (_ bv62 6) ?x409)))))
 (let (($x2877 (= (stack_t x_0 x_1 x_2 x_MLOAD_0 2 (bvadd (_ bv61 6) ?x409)) (stack_t x_0 x_1 x_2 x_MLOAD_0 1 (bvadd (_ bv61 6) ?x409)))))
 (let ((?x2868 (bvadd (_ bv60 6) ?x409)))
 (let ((?x2869 (stack_t x_0 x_1 x_2 x_MLOAD_0 1 ?x2868)))
 (let (($x1989 (not (= ((_ extract 6 6) (bvadd (_ bv1 7) (concat (_ bv0 1) ?x63))) (_ bv0 1)))))
 (let (($x2859 (forall ((w (_ BitVec 256)) )(let ((?x2486 (storage_t x_0 x_1 x_2 x_MLOAD_0 0 w)))
 (let ((?x2521 (storage_t x_0 x_1 x_2 x_MLOAD_0 1 w)))
 (= ?x2521 ?x2486))))
 ))
 (let (($x2858 (forall ((n (_ BitVec 6)) )(let ((?x2491 (stack_t x_0 x_1 x_2 x_MLOAD_0 0 n)))
 (let ((?x2525 (stack_t x_0 x_1 x_2 x_MLOAD_0 1 n)))
 (or (bvsle (bvadd (_ bv61 6) (sc_t 0)) n) (= ?x2525 ?x2491)))))
 ))
 (let (($x1979 (= ?x409 (bvadd (_ bv1 6) ?x63))))
 (let (($x2851 (= (stack_t x_0 x_1 x_2 x_MLOAD_0 1 (bvadd (_ bv63 6) ?x63)) (stack_t x_0 x_1 x_2 x_MLOAD_0 0 (bvadd (_ bv63 6) ?x63)))))
 (let (($x2847 (= (stack_t x_0 x_1 x_2 x_MLOAD_0 1 (bvadd (_ bv62 6) ?x63)) (stack_t x_0 x_1 x_2 x_MLOAD_0 0 (bvadd (_ bv62 6) ?x63)))))
 (let ((?x2839 (bvadd (_ bv61 6) ?x63)))
 (let ((?x2840 (stack_t x_0 x_1 x_2 x_MLOAD_0 0 ?x2839)))
 (let (($x2835 (= $x337 (or (exc_halt_s 3) (not (bvsle (_ bv0 6) (bvadd (_ bv62 6) (sc_s 3))))))))
 (let (($x2831 (forall ((w (_ BitVec 256)) )(let ((?x2583 (storage_s x_0 x_1 x_2 x_MLOAD_0 3 w)))
 (let ((?x2470 (storage_s x_0 x_1 x_2 x_MLOAD_0 4 w)))
 (= ?x2470 ?x2583))))
 ))
 (let (($x2830 (forall ((n (_ BitVec 6)) )(let ((?x2587 (stack_s x_0 x_1 x_2 x_MLOAD_0 3 n)))
 (let ((?x2475 (stack_s x_0 x_1 x_2 x_MLOAD_0 4 n)))
 (or (bvsle (bvadd (_ bv62 6) (sc_s 3)) n) (= ?x2475 ?x2587)))))
 ))
 (let (($x2824 (= (used_gas_s x_0 x_1 x_2 x_MLOAD_0 4) (+ 3 (used_gas_s x_0 x_1 x_2 x_MLOAD_0 3)))))
 (let ((?x275 (sc_s 3)))
 (let ((?x826 (bvadd (_ bv63 6) ?x275)))
 (let ((?x2777 (stack_s x_0 x_1 x_2 x_MLOAD_0 3 ?x826)))
 (let (($x2818 (= (stack_s x_0 x_1 x_2 x_MLOAD_0 4 (bvadd (_ bv63 6) ?x321)) (stack_s x_0 x_1 x_2 x_MLOAD_0 3 (bvadd (_ bv62 6) ?x275)))))
 (let (($x247 (exc_halt_s 2)))
 (let (($x2812 (or $x247 (not (bvsle (_ bv0 6) (bvadd (_ bv60 6) (sc_s 2)))) (not (= ((_ extract 6 6) (bvadd (_ bv1 7) (concat (_ bv0 1) (sc_s 2)))) (_ bv0 1))))))
 (let (($x292 (exc_halt_s 3)))
 (let (($x2803 (forall ((w (_ BitVec 256)) )(let ((?x2609 (storage_s x_0 x_1 x_2 x_MLOAD_0 2 w)))
 (let ((?x2583 (storage_s x_0 x_1 x_2 x_MLOAD_0 3 w)))
 (= ?x2583 ?x2609))))
 ))
 (let (($x2802 (forall ((n (_ BitVec 6)) )(let ((?x2613 (stack_s x_0 x_1 x_2 x_MLOAD_0 2 n)))
 (let ((?x2587 (stack_s x_0 x_1 x_2 x_MLOAD_0 3 n)))
 (or (bvsle (bvadd (_ bv60 6) (sc_s 2)) n) (= ?x2587 ?x2613)))))
 ))
 (let ((?x2595 (used_gas_s x_0 x_1 x_2 x_MLOAD_0 3)))
 (let ((?x218 (sc_s 2)))
 (let ((?x782 (bvadd (_ bv63 6) ?x218)))
 (let ((?x2764 (stack_s x_0 x_1 x_2 x_MLOAD_0 2 ?x782)))
 (let (($x2791 (= (stack_s x_0 x_1 x_2 x_MLOAD_0 3 (bvadd (_ bv62 6) ?x218)) (stack_s x_0 x_1 x_2 x_MLOAD_0 2 (bvadd (_ bv62 6) ?x218)))))
 (let (($x2787 (= (stack_s x_0 x_1 x_2 x_MLOAD_0 3 (bvadd (_ bv61 6) ?x218)) (stack_s x_0 x_1 x_2 x_MLOAD_0 2 (bvadd (_ bv61 6) ?x218)))))
 (let ((?x791 (bvadd (_ bv60 6) ?x218)))
 (let ((?x2780 (stack_s x_0 x_1 x_2 x_MLOAD_0 2 ?x791)))
 (let (($x2775 (= $x247 (or (exc_halt_s 1) (not (bvsle (_ bv0 6) (bvadd (_ bv63 6) (sc_s 1))))))))
 (let (($x2773 (forall ((w (_ BitVec 256)) )(let ((?x2643 (storage_s x_0 x_1 x_2 x_MLOAD_0 1 w)))
 (let ((?x2609 (storage_s x_0 x_1 x_2 x_MLOAD_0 2 w)))
 (= ?x2609 ?x2643))))
 ))
 (let (($x2772 (forall ((n (_ BitVec 6)) )(let ((?x2647 (stack_s x_0 x_1 x_2 x_MLOAD_0 1 n)))
 (let ((?x2613 (stack_s x_0 x_1 x_2 x_MLOAD_0 2 n)))
 (let ((?x154 (sc_s 1)))
 (let ((?x751 (bvadd (_ bv63 6) ?x154)))
 (let (($x1862 (bvsle ?x751 n)))
 (or $x1862 (= ?x2613 ?x2647))))))))
 ))
 (let ((?x154 (sc_s 1)))
 (let (($x814 (= ?x218 ?x154)))
 (let ((?x2621 (used_gas_s x_0 x_1 x_2 x_MLOAD_0 2)))
 (let ((?x751 (bvadd (_ bv63 6) ?x154)))
 (let ((?x2731 (stack_s x_0 x_1 x_2 x_MLOAD_0 1 ?x751)))
 (let (($x777 (not (= ((_ extract 6 6) (bvadd (_ bv1 7) (concat (_ bv0 1) ?x72))) (_ bv0 1)))))
 (let (($x189 (exc_halt_s 1)))
 (let (($x2756 (forall ((w (_ BitVec 256)) )(let ((?x2487 (storage_s x_0 x_1 x_2 x_MLOAD_0 0 w)))
 (let ((?x2643 (storage_s x_0 x_1 x_2 x_MLOAD_0 1 w)))
 (= ?x2643 ?x2487))))
 ))
 (let (($x2755 (forall ((n (_ BitVec 6)) )(let ((?x2492 (stack_s x_0 x_1 x_2 x_MLOAD_0 0 n)))
 (let ((?x2647 (stack_s x_0 x_1 x_2 x_MLOAD_0 1 n)))
 (or (bvsle (bvadd (_ bv61 6) (sc_s 0)) n) (= ?x2647 ?x2492)))))
 ))
 (let (($x762 (= ?x154 (bvadd (_ bv1 6) ?x72))))
 (let (($x2748 (= (stack_s x_0 x_1 x_2 x_MLOAD_0 1 (bvadd (_ bv63 6) ?x72)) (stack_s x_0 x_1 x_2 x_MLOAD_0 0 (bvadd (_ bv63 6) ?x72)))))
 (let (($x2744 (= (stack_s x_0 x_1 x_2 x_MLOAD_0 1 (bvadd (_ bv62 6) ?x72)) (stack_s x_0 x_1 x_2 x_MLOAD_0 0 (bvadd (_ bv62 6) ?x72)))))
 (let ((?x2734 (bvadd (_ bv61 6) ?x72)))
 (let ((?x2735 (stack_s x_0 x_1 x_2 x_MLOAD_0 0 ?x2734)))
 (let (($x2730 (forall ((w0 (_ BitVec 256)) )(let (($x2727 (= (stack_s x_0 x_1 x_2 x_MLOAD_0 1 (bvadd (_ bv63 6) (sc_s 1))) w0)))
 (let ((?x2696 (f_MLOAD x_0 x_1 x_2 x_MLOAD_0 w0)))
 (= ?x2696 (ite $x2727 x_MLOAD_0 (_ bv0 256))))))
 ))
 (let (($x2701 (forall ((w (_ BitVec 256)) )(let ((?x2487 (storage_s x_0 x_1 x_2 x_MLOAD_0 0 w)))
 (= ?x2487 (_ bv0 256))))
 ))
 (let (($x2702 (= ?x2483 0)))
 (let (($x748 (not $x57)))
 (let (($x2706 (= (stack_s x_0 x_1 x_2 x_MLOAD_0 0 (_ bv2 6)) x_2)))
 (let (($x2708 (= (stack_s x_0 x_1 x_2 x_MLOAD_0 0 (_ bv1 6)) x_1)))
 (let (($x2710 (= (stack_s x_0 x_1 x_2 x_MLOAD_0 0 (_ bv0 6)) x_0)))
 (let (($x96 (= ?x72 (_ bv3 6))))
 (and $x96 $x2710 $x2708 $x2706 $x748 $x2702 $x2701 $x2730 (= ?x2731 ?x2735) (= (stack_s x_0 x_1 x_2 x_MLOAD_0 1 ?x2734) ?x2735) $x2744 $x2748 (= (used_gas_s x_0 x_1 x_2 x_MLOAD_0 1) (+ 3 ?x2483)) $x762 $x2755 $x2756 (= $x189 (or $x57 $x777 (not (bvsle (_ bv0 6) ?x2734)))) (= ?x2764 (f_MLOAD x_0 x_1 x_2 x_MLOAD_0 ?x2731)) (= ?x2621 (+ 3 (used_gas_s x_0 x_1 x_2 x_MLOAD_0 1))) $x814 $x2772 $x2773 $x2775 (= ?x2777 ?x2780) (= (stack_s x_0 x_1 x_2 x_MLOAD_0 3 ?x791) ?x2780) $x2787 $x2791 (= (stack_s x_0 x_1 x_2 x_MLOAD_0 3 ?x782) ?x2764) (= ?x2595 (+ 3 ?x2621)) (= ?x275 (bvadd (_ bv1 6) ?x218)) $x2802 $x2803 (= $x292 $x2812) $x2818 (= (stack_s x_0 x_1 x_2 x_MLOAD_0 4 (bvadd (_ bv62 6) ?x321)) ?x2777) $x2824 (= ?x321 ?x275) $x2830 $x2831 $x2835 (= ?x2837 ?x2840) (= (stack_t x_0 x_1 x_2 x_MLOAD_0 1 ?x2839) ?x2840) $x2847 $x2851 (= (used_gas_t x_0 x_1 x_2 x_MLOAD_0 1) (+ 3 ?x2482)) $x1979 $x2858 $x2859 (= $x424 (or $x56 $x1989 (not (bvsle (_ bv0 6) ?x2839)))) (= ?x2866 ?x2869) (= (stack_t x_0 x_1 x_2 x_MLOAD_0 2 ?x2868) ?x2869) $x2877 $x2881 (= (stack_t x_0 x_1 x_2 x_MLOAD_0 2 ?x880) ?x2837) (= ?x2511 (+ 3 (used_gas_t x_0 x_1 x_2 x_MLOAD_0 1))) $x2002 $x2890 $x2891 (= $x475 (or $x424 $x2012 (not (bvsle (_ bv0 6) ?x2868)))) $x2900 $x2903 $x936 $x2907 $x2908 $x2910 $x73 $x2913 $x58 $x2489 $x2484 (not (and $x1853 $x2915 $x1847 $x2472))))))))))))))))))))))))))))))))))))))))))))))))))))))))))))))))))))))))))))))))))))))))))))))))))))
 )
(check-sat)
(get-proof)
